200
120 120
1 84 101
2 84 150
3 83 556
4 83 504
5 83 946
6 83 885
7 83 726
8 82 506
9 82 354
10 82 341
11 82 604
12 81 602
13 81 411
14 80 136
15 80 259
16 79 415
17 78 51
18 78 288
19 77 276
20 76 501
21 76 37
22 76 535
23 75 585
24 75 569
25 74 390
26 73 636
27 73 637
28 72 268
29 72 938
30 71 912
31 71 216
32 71 771
33 71 779
34 71 458
35 70 978
36 70 204
37 69 243
38 69 144
39 69 195
40 69 312
41 69 353
42 69 990
43 68 63
44 68 890
45 68 993
46 68 4
47 68 195
48 68 471
49 67 641
50 67 793
51 67 196
52 67 406
53 67 39
54 67 857
55 67 606
56 66 690
57 66 776
58 65 487
59 65 665
60 65 877
61 65 116
62 64 893
63 64 416
64 64 131
65 64 959
66 64 741
67 64 564
68 64 351
69 63 494
70 63 933
71 63 557
72 63 415
73 63 517
74 62 553
75 61 880
76 61 882
77 61 616
78 60 251
79 60 144
80 60 867
81 60 169
82 60 536
83 59 36
84 59 677
85 58 283
86 58 942
87 57 450
88 56 228
89 55 409
90 55 429
91 55 264
92 55 845
93 55 191
94 55 610
95 54 840
96 54 417
97 54 673
98 53 851
99 52 834
100 52 265
101 51 62
102 51 846
103 50 324
104 50 818
105 50 179
106 50 40
107 49 975
108 49 559
109 49 49
110 49 418
111 48 169
112 48 762
113 48 908
114 48 69
115 48 977
116 48 857
117 47 615
118 47 780
119 45 119
120 45 410
121 45 581
122 45 128
123 45 8
124 45 586
125 45 41
126 44 942
127 44 394
128 44 500
129 44 823
130 43 734
131 43 772
132 43 541
133 42 58
134 42 593
135 42 534
136 42 928
137 42 683
138 42 78
139 42 569
140 42 970
141 41 920
142 41 76
143 41 929
144 40 493
145 40 667
146 40 915
147 40 563
148 40 255
149 39 132
150 39 975
151 39 284
152 39 445
153 39 171
154 38 459
155 38 530
156 37 343
157 36 562
158 36 249
159 35 960
160 35 921
161 34 59
162 34 726
163 34 841
164 34 470
165 33 994
166 32 314
167 32 88
168 31 59
169 31 530
170 31 414
171 31 685
172 31 30
173 31 684
174 31 433
175 31 720
176 31 408
177 31 672
178 30 75
179 30 183
180 30 596
181 30 583
182 30 398
183 29 902
184 28 65
185 28 210
186 27 960
187 27 455
188 26 492
189 26 22
190 26 597
191 26 692
192 26 55
193 25 661
194 25 931
195 24 609
196 24 998
197 24 457
198 24 119
199 24 959
200 24 373
